(set-info :smt-lib-version 2.6)
(set-logic QF_NIA)
(set-info :source |
Generated by: Cristina Borralleras, Daniel Larraz, Albert Oliveras, Enric Rodriguez-Carbonell, Albert Rubio
Generated on: 2017-04-27
Generator: VeryMax
Application: Termination proving
Target solver: barcelogic
|)
(set-info :license "https://creativecommons.org/licenses/by/4.0/")
(set-info :category "industrial")
(set-info :status sat)
(declare-fun global_invc1_0 () Int)
(declare-fun global_invc1_1 () Int)
(declare-fun lam0n0 () Int)
(declare-fun lam0n1 () Int)
(declare-fun lam0n2 () Int)
(declare-fun lam0n5 () Int)
(declare-fun global_invc1_2 () Int)
(declare-fun lam0n3 () Int)
(declare-fun lam0n4 () Int)
(declare-fun lam1n0 () Int)
(declare-fun lam1n1 () Int)
(declare-fun lam1n4 () Int)
(declare-fun lam1n5 () Int)
(declare-fun lam1n6 () Int)
(declare-fun lam1n7 () Int)
(declare-fun lam1n8 () Int)
(declare-fun lam1n2 () Int)
(declare-fun lam1n3 () Int)
(declare-fun term_invc1_0 () Int)
(declare-fun term_invc1_1 () Int)
(declare-fun lam2n0 () Int)
(declare-fun lam2n1 () Int)
(declare-fun lam2n4 () Int)
(declare-fun lam2n5 () Int)
(declare-fun lam2n6 () Int)
(declare-fun lam2n7 () Int)
(declare-fun lam2n8 () Int)
(declare-fun lam2n9 () Int)
(declare-fun lam2n10 () Int)
(declare-fun lam2n11 () Int)
(declare-fun lam2n12 () Int)
(declare-fun lam2n13 () Int)
(declare-fun lam2n14 () Int)
(declare-fun lam2n15 () Int)
(declare-fun lam2n16 () Int)
(declare-fun lam2n17 () Int)
(declare-fun lam2n18 () Int)
(declare-fun lam2n19 () Int)
(declare-fun lam2n20 () Int)
(declare-fun lam2n21 () Int)
(declare-fun lam2n22 () Int)
(declare-fun lam2n23 () Int)
(declare-fun lam2n24 () Int)
(declare-fun lam2n25 () Int)
(declare-fun lam2n26 () Int)
(declare-fun lam2n27 () Int)
(declare-fun lam2n28 () Int)
(declare-fun lam2n29 () Int)
(declare-fun lam2n30 () Int)
(declare-fun lam2n31 () Int)
(declare-fun lam2n32 () Int)
(declare-fun lam2n33 () Int)
(declare-fun lam2n34 () Int)
(declare-fun lam2n35 () Int)
(declare-fun lam2n36 () Int)
(declare-fun lam2n37 () Int)
(declare-fun lam2n38 () Int)
(declare-fun lam2n39 () Int)
(declare-fun lam2n40 () Int)
(declare-fun term_invc1_2 () Int)
(declare-fun lam2n2 () Int)
(declare-fun lam2n3 () Int)
(declare-fun non_inc1_L_L_L () Bool)
(declare-fun lam3n0 () Int)
(declare-fun lam3n1 () Int)
(declare-fun lam3n4 () Int)
(declare-fun lam3n5 () Int)
(declare-fun lam3n6 () Int)
(declare-fun lam3n7 () Int)
(declare-fun lam3n8 () Int)
(declare-fun lam3n9 () Int)
(declare-fun lam3n10 () Int)
(declare-fun lam3n11 () Int)
(declare-fun lam3n12 () Int)
(declare-fun lam3n13 () Int)
(declare-fun lam3n14 () Int)
(declare-fun lam3n15 () Int)
(declare-fun lam3n16 () Int)
(declare-fun lam3n17 () Int)
(declare-fun lam3n18 () Int)
(declare-fun lam3n19 () Int)
(declare-fun lam3n20 () Int)
(declare-fun lam3n21 () Int)
(declare-fun lam3n22 () Int)
(declare-fun lam3n23 () Int)
(declare-fun lam3n24 () Int)
(declare-fun lam3n25 () Int)
(declare-fun lam3n26 () Int)
(declare-fun lam3n27 () Int)
(declare-fun lam3n28 () Int)
(declare-fun lam3n29 () Int)
(declare-fun lam3n30 () Int)
(declare-fun lam3n31 () Int)
(declare-fun lam3n32 () Int)
(declare-fun lam3n33 () Int)
(declare-fun lam3n34 () Int)
(declare-fun lam3n35 () Int)
(declare-fun lam3n36 () Int)
(declare-fun lam3n37 () Int)
(declare-fun lam3n38 () Int)
(declare-fun lam3n39 () Int)
(declare-fun lam3n40 () Int)
(declare-fun lam3n42 () Int)
(declare-fun lam3n41 () Int)
(declare-fun lam3n2 () Int)
(declare-fun rfc0 () Int)
(declare-fun lam3n3 () Int)
(declare-fun rfc1 () Int)
(declare-fun disabled1_L_L_L () Bool)
(declare-fun bounded1_L_L_L () Bool)
(declare-fun lam4n0 () Int)
(declare-fun lam4n1 () Int)
(declare-fun lam4n4 () Int)
(declare-fun lam4n5 () Int)
(declare-fun lam4n6 () Int)
(declare-fun lam4n7 () Int)
(declare-fun lam4n8 () Int)
(declare-fun lam4n9 () Int)
(declare-fun lam4n10 () Int)
(declare-fun lam4n11 () Int)
(declare-fun lam4n12 () Int)
(declare-fun lam4n13 () Int)
(declare-fun lam4n14 () Int)
(declare-fun lam4n15 () Int)
(declare-fun lam4n16 () Int)
(declare-fun lam4n17 () Int)
(declare-fun lam4n18 () Int)
(declare-fun lam4n19 () Int)
(declare-fun lam4n20 () Int)
(declare-fun lam4n21 () Int)
(declare-fun lam4n22 () Int)
(declare-fun lam4n23 () Int)
(declare-fun lam4n24 () Int)
(declare-fun lam4n25 () Int)
(declare-fun lam4n26 () Int)
(declare-fun lam4n27 () Int)
(declare-fun lam4n28 () Int)
(declare-fun lam4n29 () Int)
(declare-fun lam4n30 () Int)
(declare-fun lam4n31 () Int)
(declare-fun lam4n32 () Int)
(declare-fun lam4n33 () Int)
(declare-fun lam4n34 () Int)
(declare-fun lam4n35 () Int)
(declare-fun lam4n36 () Int)
(declare-fun lam4n37 () Int)
(declare-fun lam4n38 () Int)
(declare-fun lam4n39 () Int)
(declare-fun lam4n40 () Int)
(declare-fun lam4n41 () Int)
(declare-fun rfc2 () Int)
(declare-fun lam4n2 () Int)
(declare-fun lam4n3 () Int)
(declare-fun dec1_L_L_L () Bool)
(declare-fun lam5n0 () Int)
(declare-fun lam5n1 () Int)
(declare-fun lam5n4 () Int)
(declare-fun lam5n5 () Int)
(declare-fun lam5n6 () Int)
(declare-fun lam5n7 () Int)
(declare-fun lam5n8 () Int)
(declare-fun lam5n9 () Int)
(declare-fun lam5n10 () Int)
(declare-fun lam5n11 () Int)
(declare-fun lam5n12 () Int)
(declare-fun lam5n13 () Int)
(declare-fun lam5n14 () Int)
(declare-fun lam5n15 () Int)
(declare-fun lam5n16 () Int)
(declare-fun lam5n17 () Int)
(declare-fun lam5n18 () Int)
(declare-fun lam5n19 () Int)
(declare-fun lam5n20 () Int)
(declare-fun lam5n21 () Int)
(declare-fun lam5n22 () Int)
(declare-fun lam5n23 () Int)
(declare-fun lam5n24 () Int)
(declare-fun lam5n25 () Int)
(declare-fun lam5n26 () Int)
(declare-fun lam5n27 () Int)
(declare-fun lam5n28 () Int)
(declare-fun lam5n29 () Int)
(declare-fun lam5n30 () Int)
(declare-fun lam5n31 () Int)
(declare-fun lam5n32 () Int)
(declare-fun lam5n33 () Int)
(declare-fun lam5n34 () Int)
(declare-fun lam5n35 () Int)
(declare-fun lam5n36 () Int)
(declare-fun lam5n37 () Int)
(declare-fun lam5n38 () Int)
(declare-fun lam5n39 () Int)
(declare-fun lam5n40 () Int)
(declare-fun lam5n41 () Int)
(declare-fun lam5n2 () Int)
(declare-fun lam5n3 () Int)
(declare-fun bnd_and_dec1_L_L_L () Bool)
(declare-fun GLOBAL_NT_1 () Bool)
(declare-fun global_V0_1 () Int)
(declare-fun global_V1_1 () Int)
(declare-fun TERM_NT_1 () Bool)
(declare-fun term_V0_1 () Int)
(declare-fun term_V1_1 () Int)
(declare-fun ALL_NON_INC_0 () Bool)
(declare-fun DIS_OR_ALL_NON_INC_0 () Bool)
(declare-fun SOME_BND_AND_DEC_0 () Bool)
(declare-fun V0_NIV () Int)
(declare-fun V1_NIV () Int)
(declare-fun V2_NIV () Int)
(declare-fun V3_NIV () Int)
(assert ( and ( >= global_invc1_0 ( - 1 ) ) ( <= global_invc1_0 1 ) ( >= global_invc1_1 ( - 1 ) ) ( <= global_invc1_1 1 ) ( and ( >= lam0n0 0 ) ( >= lam0n1 0 ) ( >= lam0n2 0 ) ( <= 0 lam0n5 ) ( < lam0n5 1 ) ( and ( = ( + ( * ( - 1 ) lam0n0 ) ( * lam0n1 1 ) ( * lam0n2 1 ) ) ( + global_invc1_2 ( * ( - 1 ) lam0n5 ) ) ) ( = ( + ( * lam0n1 1 ) ( * lam0n2 ( - 1 ) ) ( * lam0n3 1 ) ) 0 ) ( = ( + ( * lam0n1 1 ) ( * lam0n4 1 ) ) 0 ) ( = ( * lam0n3 ( - 1 ) ) global_invc1_0 ) ( = ( * lam0n4 ( - 1 ) ) global_invc1_1 ) ) ) ( and ( >= lam1n0 0 ) ( >= lam1n1 0 ) ( >= lam1n4 0 ) ( >= lam1n5 0 ) ( >= lam1n6 0 ) ( >= lam1n7 0 ) ( <= 0 lam1n8 ) ( < lam1n8 1 ) ( and ( = ( + ( * ( - 1 ) lam1n0 ) ( * lam1n4 1 ) ( * lam1n5 1 ) ( * lam1n6 2 ) ( * lam1n7 global_invc1_2 ) ) ( + global_invc1_2 ( * ( - 1 ) lam1n8 ) ) ) ( = ( + ( * lam1n1 ( - 1 ) ) ( * lam1n2 1 ) ( * lam1n5 ( - 1 ) ) ( * lam1n7 global_invc1_0 ) ) 0 ) ( = ( + ( * lam1n2 ( - 1 ) ) ( * lam1n3 1 ) ( * lam1n4 1 ) ( * lam1n6 1 ) ( * lam1n7 global_invc1_1 ) ) 0 ) ( = ( * lam1n2 ( - 1 ) ) global_invc1_0 ) ( = ( * lam1n3 ( - 1 ) ) global_invc1_1 ) ) ) ( >= term_invc1_0 ( - 1 ) ) ( <= term_invc1_0 1 ) ( >= term_invc1_1 ( - 1 ) ) ( <= term_invc1_1 1 ) ( and ( >= lam2n0 0 ) ( >= lam2n1 0 ) ( >= lam2n4 0 ) ( >= lam2n5 0 ) ( >= lam2n6 0 ) ( >= lam2n7 0 ) ( >= lam2n8 0 ) ( >= lam2n9 0 ) ( >= lam2n10 0 ) ( >= lam2n11 0 ) ( >= lam2n12 0 ) ( >= lam2n13 0 ) ( >= lam2n14 0 ) ( >= lam2n15 0 ) ( >= lam2n16 0 ) ( >= lam2n17 0 ) ( >= lam2n18 0 ) ( >= lam2n19 0 ) ( >= lam2n20 0 ) ( >= lam2n21 0 ) ( >= lam2n22 0 ) ( >= lam2n23 0 ) ( >= lam2n24 0 ) ( >= lam2n25 0 ) ( >= lam2n26 0 ) ( >= lam2n27 0 ) ( >= lam2n28 0 ) ( >= lam2n29 0 ) ( >= lam2n30 0 ) ( >= lam2n31 0 ) ( >= lam2n32 0 ) ( >= lam2n33 0 ) ( >= lam2n34 0 ) ( >= lam2n35 0 ) ( >= lam2n36 0 ) ( >= lam2n37 0 ) ( >= lam2n38 0 ) ( >= lam2n39 0 ) ( <= 0 lam2n40 ) ( < lam2n40 1 ) ( and ( = ( + ( * ( - 1 ) lam2n0 ) ( * lam2n4 1 ) ( * lam2n5 1 ) ( * lam2n6 2 ) ( * lam2n7 50001 ) ( * lam2n8 1 ) ( * lam2n9 50004 ) ( * lam2n10 50001 ) ( * lam2n11 27 ) ( * lam2n12 33 ) ( * lam2n13 69 ) ( * lam2n14 70 ) ( * lam2n15 71 ) ( * lam2n16 72 ) ( * lam2n17 73 ) ( * lam2n18 74 ) ( * lam2n19 75 ) ( * lam2n20 76 ) ( * lam2n21 77 ) ( * lam2n22 78 ) ( * lam2n23 79 ) ( * lam2n24 80 ) ( * lam2n25 81 ) ( * lam2n26 82 ) ( * lam2n27 83 ) ( * lam2n28 84 ) ( * lam2n29 85 ) ( * lam2n30 86 ) ( * lam2n31 87 ) ( * lam2n32 88 ) ( * lam2n33 89 ) ( * lam2n34 90 ) ( * lam2n35 91 ) ( * lam2n36 92 ) ( * lam2n37 93 ) ( * lam2n38 94 ) ( * lam2n39 global_invc1_2 ) ) ( + term_invc1_2 ( * ( - 1 ) lam2n40 ) ) ) ( = ( + ( * lam2n1 ( - 1 ) ) ( * lam2n2 1 ) ( * lam2n5 ( - 1 ) ) ( * lam2n7 ( - 1 ) ) ( * lam2n8 ( - 1 ) ) ( * lam2n9 ( - 1 ) ) ( * lam2n10 ( - 1 ) ) ( * lam2n11 ( - 1 ) ) ( * lam2n12 ( - 1 ) ) ( * lam2n13 ( - 1 ) ) ( * lam2n14 ( - 1 ) ) ( * lam2n15 ( - 1 ) ) ( * lam2n16 ( - 1 ) ) ( * lam2n17 ( - 1 ) ) ( * lam2n18 ( - 1 ) ) ( * lam2n19 ( - 1 ) ) ( * lam2n20 ( - 1 ) ) ( * lam2n21 ( - 1 ) ) ( * lam2n22 ( - 1 ) ) ( * lam2n23 ( - 1 ) ) ( * lam2n24 ( - 1 ) ) ( * lam2n25 ( - 1 ) ) ( * lam2n26 ( - 1 ) ) ( * lam2n27 ( - 1 ) ) ( * lam2n28 ( - 1 ) ) ( * lam2n29 ( - 1 ) ) ( * lam2n30 ( - 1 ) ) ( * lam2n31 ( - 1 ) ) ( * lam2n32 ( - 1 ) ) ( * lam2n33 ( - 1 ) ) ( * lam2n34 ( - 1 ) ) ( * lam2n35 ( - 1 ) ) ( * lam2n36 ( - 1 ) ) ( * lam2n37 ( - 1 ) ) ( * lam2n38 ( - 1 ) ) ( * lam2n39 global_invc1_0 ) ) 0 ) ( = ( + ( * lam2n2 ( - 1 ) ) ( * lam2n3 1 ) ( * lam2n4 1 ) ( * lam2n6 1 ) ( * lam2n7 ( - 1 ) ) ( * lam2n8 ( - 1 ) ) ( * lam2n9 1 ) ( * lam2n10 ( - 2 ) ) ( * lam2n11 ( - 1 ) ) ( * lam2n39 global_invc1_1 ) ) 0 ) ( = ( * lam2n2 ( - 1 ) ) term_invc1_0 ) ( = ( * lam2n3 ( - 1 ) ) term_invc1_1 ) ) ) ( = non_inc1_L_L_L ( and ( >= lam3n0 0 ) ( >= lam3n1 0 ) ( >= lam3n4 0 ) ( >= lam3n5 0 ) ( >= lam3n6 0 ) ( >= lam3n7 0 ) ( >= lam3n8 0 ) ( >= lam3n9 0 ) ( >= lam3n10 0 ) ( >= lam3n11 0 ) ( >= lam3n12 0 ) ( >= lam3n13 0 ) ( >= lam3n14 0 ) ( >= lam3n15 0 ) ( >= lam3n16 0 ) ( >= lam3n17 0 ) ( >= lam3n18 0 ) ( >= lam3n19 0 ) ( >= lam3n20 0 ) ( >= lam3n21 0 ) ( >= lam3n22 0 ) ( >= lam3n23 0 ) ( >= lam3n24 0 ) ( >= lam3n25 0 ) ( >= lam3n26 0 ) ( >= lam3n27 0 ) ( >= lam3n28 0 ) ( >= lam3n29 0 ) ( >= lam3n30 0 ) ( >= lam3n31 0 ) ( >= lam3n32 0 ) ( >= lam3n33 0 ) ( >= lam3n34 0 ) ( >= lam3n35 0 ) ( >= lam3n36 0 ) ( >= lam3n37 0 ) ( >= lam3n38 0 ) ( >= lam3n39 0 ) ( >= lam3n40 0 ) ( <= 0 lam3n42 ) ( < lam3n42 1 ) ( <= lam3n41 1 ) ( >= lam3n41 0 ) ( and ( > ( + ( * ( - 1 ) lam3n0 ) ( * lam3n4 1 ) ( * lam3n5 1 ) ( * lam3n6 2 ) ( * lam3n7 50001 ) ( * lam3n8 1 ) ( * lam3n9 50004 ) ( * lam3n10 50001 ) ( * lam3n11 27 ) ( * lam3n12 33 ) ( * lam3n13 69 ) ( * lam3n14 70 ) ( * lam3n15 71 ) ( * lam3n16 72 ) ( * lam3n17 73 ) ( * lam3n18 74 ) ( * lam3n19 75 ) ( * lam3n20 76 ) ( * lam3n21 77 ) ( * lam3n22 78 ) ( * lam3n23 79 ) ( * lam3n24 80 ) ( * lam3n25 81 ) ( * lam3n26 82 ) ( * lam3n27 83 ) ( * lam3n28 84 ) ( * lam3n29 85 ) ( * lam3n30 86 ) ( * lam3n31 87 ) ( * lam3n32 88 ) ( * lam3n33 89 ) ( * lam3n34 90 ) ( * lam3n35 91 ) ( * lam3n36 92 ) ( * lam3n37 93 ) ( * lam3n38 94 ) ( * lam3n39 global_invc1_2 ) ( * lam3n40 term_invc1_2 ) ( * lam3n41 ( + 1 ( * ( - 1 ) lam3n42 ) ) ) ) 0 ) ( = ( + ( * lam3n1 ( - 1 ) ) ( * lam3n2 1 ) ( * lam3n5 ( - 1 ) ) ( * lam3n7 ( - 1 ) ) ( * lam3n8 ( - 1 ) ) ( * lam3n9 ( - 1 ) ) ( * lam3n10 ( - 1 ) ) ( * lam3n11 ( - 1 ) ) ( * lam3n12 ( - 1 ) ) ( * lam3n13 ( - 1 ) ) ( * lam3n14 ( - 1 ) ) ( * lam3n15 ( - 1 ) ) ( * lam3n16 ( - 1 ) ) ( * lam3n17 ( - 1 ) ) ( * lam3n18 ( - 1 ) ) ( * lam3n19 ( - 1 ) ) ( * lam3n20 ( - 1 ) ) ( * lam3n21 ( - 1 ) ) ( * lam3n22 ( - 1 ) ) ( * lam3n23 ( - 1 ) ) ( * lam3n24 ( - 1 ) ) ( * lam3n25 ( - 1 ) ) ( * lam3n26 ( - 1 ) ) ( * lam3n27 ( - 1 ) ) ( * lam3n28 ( - 1 ) ) ( * lam3n29 ( - 1 ) ) ( * lam3n30 ( - 1 ) ) ( * lam3n31 ( - 1 ) ) ( * lam3n32 ( - 1 ) ) ( * lam3n33 ( - 1 ) ) ( * lam3n34 ( - 1 ) ) ( * lam3n35 ( - 1 ) ) ( * lam3n36 ( - 1 ) ) ( * lam3n37 ( - 1 ) ) ( * lam3n38 ( - 1 ) ) ( * lam3n39 global_invc1_0 ) ( * lam3n40 term_invc1_0 ) ( * lam3n41 rfc0 ) ) 0 ) ( = ( + ( * lam3n2 ( - 1 ) ) ( * lam3n3 1 ) ( * lam3n4 1 ) ( * lam3n6 1 ) ( * lam3n7 ( - 1 ) ) ( * lam3n8 ( - 1 ) ) ( * lam3n9 1 ) ( * lam3n10 ( - 2 ) ) ( * lam3n11 ( - 1 ) ) ( * lam3n39 global_invc1_1 ) ( * lam3n40 term_invc1_1 ) ( * lam3n41 rfc1 ) ) 0 ) ( = ( + ( * lam3n2 ( - 1 ) ) ( * lam3n41 ( * ( - 1 ) rfc0 ) ) ) 0 ) ( = ( + ( * lam3n3 ( - 1 ) ) ( * lam3n41 ( * ( - 1 ) rfc1 ) ) ) 0 ) ) ) ) ( = disabled1_L_L_L ( and ( = lam3n41 0 ) non_inc1_L_L_L ) ) ( = bounded1_L_L_L ( and ( >= lam4n0 0 ) ( >= lam4n1 0 ) ( >= lam4n4 0 ) ( >= lam4n5 0 ) ( >= lam4n6 0 ) ( >= lam4n7 0 ) ( >= lam4n8 0 ) ( >= lam4n9 0 ) ( >= lam4n10 0 ) ( >= lam4n11 0 ) ( >= lam4n12 0 ) ( >= lam4n13 0 ) ( >= lam4n14 0 ) ( >= lam4n15 0 ) ( >= lam4n16 0 ) ( >= lam4n17 0 ) ( >= lam4n18 0 ) ( >= lam4n19 0 ) ( >= lam4n20 0 ) ( >= lam4n21 0 ) ( >= lam4n22 0 ) ( >= lam4n23 0 ) ( >= lam4n24 0 ) ( >= lam4n25 0 ) ( >= lam4n26 0 ) ( >= lam4n27 0 ) ( >= lam4n28 0 ) ( >= lam4n29 0 ) ( >= lam4n30 0 ) ( >= lam4n31 0 ) ( >= lam4n32 0 ) ( >= lam4n33 0 ) ( >= lam4n34 0 ) ( >= lam4n35 0 ) ( >= lam4n36 0 ) ( >= lam4n37 0 ) ( >= lam4n38 0 ) ( >= lam4n39 0 ) ( >= lam4n40 0 ) ( <= 0 lam4n41 ) ( < lam4n41 1 ) ( and ( = ( + ( * ( - 1 ) lam4n0 ) ( * lam4n4 1 ) ( * lam4n5 1 ) ( * lam4n6 2 ) ( * lam4n7 50001 ) ( * lam4n8 1 ) ( * lam4n9 50004 ) ( * lam4n10 50001 ) ( * lam4n11 27 ) ( * lam4n12 33 ) ( * lam4n13 69 ) ( * lam4n14 70 ) ( * lam4n15 71 ) ( * lam4n16 72 ) ( * lam4n17 73 ) ( * lam4n18 74 ) ( * lam4n19 75 ) ( * lam4n20 76 ) ( * lam4n21 77 ) ( * lam4n22 78 ) ( * lam4n23 79 ) ( * lam4n24 80 ) ( * lam4n25 81 ) ( * lam4n26 82 ) ( * lam4n27 83 ) ( * lam4n28 84 ) ( * lam4n29 85 ) ( * lam4n30 86 ) ( * lam4n31 87 ) ( * lam4n32 88 ) ( * lam4n33 89 ) ( * lam4n34 90 ) ( * lam4n35 91 ) ( * lam4n36 92 ) ( * lam4n37 93 ) ( * lam4n38 94 ) ( * lam4n39 global_invc1_2 ) ( * lam4n40 term_invc1_2 ) ) ( + ( * ( - 1 ) rfc2 ) ( * ( - 1 ) lam4n41 ) ) ) ( = ( + ( * lam4n1 ( - 1 ) ) ( * lam4n2 1 ) ( * lam4n5 ( - 1 ) ) ( * lam4n7 ( - 1 ) ) ( * lam4n8 ( - 1 ) ) ( * lam4n9 ( - 1 ) ) ( * lam4n10 ( - 1 ) ) ( * lam4n11 ( - 1 ) ) ( * lam4n12 ( - 1 ) ) ( * lam4n13 ( - 1 ) ) ( * lam4n14 ( - 1 ) ) ( * lam4n15 ( - 1 ) ) ( * lam4n16 ( - 1 ) ) ( * lam4n17 ( - 1 ) ) ( * lam4n18 ( - 1 ) ) ( * lam4n19 ( - 1 ) ) ( * lam4n20 ( - 1 ) ) ( * lam4n21 ( - 1 ) ) ( * lam4n22 ( - 1 ) ) ( * lam4n23 ( - 1 ) ) ( * lam4n24 ( - 1 ) ) ( * lam4n25 ( - 1 ) ) ( * lam4n26 ( - 1 ) ) ( * lam4n27 ( - 1 ) ) ( * lam4n28 ( - 1 ) ) ( * lam4n29 ( - 1 ) ) ( * lam4n30 ( - 1 ) ) ( * lam4n31 ( - 1 ) ) ( * lam4n32 ( - 1 ) ) ( * lam4n33 ( - 1 ) ) ( * lam4n34 ( - 1 ) ) ( * lam4n35 ( - 1 ) ) ( * lam4n36 ( - 1 ) ) ( * lam4n37 ( - 1 ) ) ( * lam4n38 ( - 1 ) ) ( * lam4n39 global_invc1_0 ) ( * lam4n40 term_invc1_0 ) ) ( * ( - 1 ) rfc0 ) ) ( = ( + ( * lam4n2 ( - 1 ) ) ( * lam4n3 1 ) ( * lam4n4 1 ) ( * lam4n6 1 ) ( * lam4n7 ( - 1 ) ) ( * lam4n8 ( - 1 ) ) ( * lam4n9 1 ) ( * lam4n10 ( - 2 ) ) ( * lam4n11 ( - 1 ) ) ( * lam4n39 global_invc1_1 ) ( * lam4n40 term_invc1_1 ) ) ( * ( - 1 ) rfc1 ) ) ( = ( * lam4n2 ( - 1 ) ) 0 ) ( = ( * lam4n3 ( - 1 ) ) 0 ) ) ) ) ( = dec1_L_L_L ( and ( >= lam5n0 0 ) ( >= lam5n1 0 ) ( >= lam5n4 0 ) ( >= lam5n5 0 ) ( >= lam5n6 0 ) ( >= lam5n7 0 ) ( >= lam5n8 0 ) ( >= lam5n9 0 ) ( >= lam5n10 0 ) ( >= lam5n11 0 ) ( >= lam5n12 0 ) ( >= lam5n13 0 ) ( >= lam5n14 0 ) ( >= lam5n15 0 ) ( >= lam5n16 0 ) ( >= lam5n17 0 ) ( >= lam5n18 0 ) ( >= lam5n19 0 ) ( >= lam5n20 0 ) ( >= lam5n21 0 ) ( >= lam5n22 0 ) ( >= lam5n23 0 ) ( >= lam5n24 0 ) ( >= lam5n25 0 ) ( >= lam5n26 0 ) ( >= lam5n27 0 ) ( >= lam5n28 0 ) ( >= lam5n29 0 ) ( >= lam5n30 0 ) ( >= lam5n31 0 ) ( >= lam5n32 0 ) ( >= lam5n33 0 ) ( >= lam5n34 0 ) ( >= lam5n35 0 ) ( >= lam5n36 0 ) ( >= lam5n37 0 ) ( >= lam5n38 0 ) ( >= lam5n39 0 ) ( >= lam5n40 0 ) ( <= 0 lam5n41 ) ( < lam5n41 1 ) ( and ( = ( + ( * ( - 1 ) lam5n0 ) ( * lam5n4 1 ) ( * lam5n5 1 ) ( * lam5n6 2 ) ( * lam5n7 50001 ) ( * lam5n8 1 ) ( * lam5n9 50004 ) ( * lam5n10 50001 ) ( * lam5n11 27 ) ( * lam5n12 33 ) ( * lam5n13 69 ) ( * lam5n14 70 ) ( * lam5n15 71 ) ( * lam5n16 72 ) ( * lam5n17 73 ) ( * lam5n18 74 ) ( * lam5n19 75 ) ( * lam5n20 76 ) ( * lam5n21 77 ) ( * lam5n22 78 ) ( * lam5n23 79 ) ( * lam5n24 80 ) ( * lam5n25 81 ) ( * lam5n26 82 ) ( * lam5n27 83 ) ( * lam5n28 84 ) ( * lam5n29 85 ) ( * lam5n30 86 ) ( * lam5n31 87 ) ( * lam5n32 88 ) ( * lam5n33 89 ) ( * lam5n34 90 ) ( * lam5n35 91 ) ( * lam5n36 92 ) ( * lam5n37 93 ) ( * lam5n38 94 ) ( * lam5n39 global_invc1_2 ) ( * lam5n40 term_invc1_2 ) ) ( + 1 ( * ( - 1 ) lam5n41 ) ) ) ( = ( + ( * lam5n1 ( - 1 ) ) ( * lam5n2 1 ) ( * lam5n5 ( - 1 ) ) ( * lam5n7 ( - 1 ) ) ( * lam5n8 ( - 1 ) ) ( * lam5n9 ( - 1 ) ) ( * lam5n10 ( - 1 ) ) ( * lam5n11 ( - 1 ) ) ( * lam5n12 ( - 1 ) ) ( * lam5n13 ( - 1 ) ) ( * lam5n14 ( - 1 ) ) ( * lam5n15 ( - 1 ) ) ( * lam5n16 ( - 1 ) ) ( * lam5n17 ( - 1 ) ) ( * lam5n18 ( - 1 ) ) ( * lam5n19 ( - 1 ) ) ( * lam5n20 ( - 1 ) ) ( * lam5n21 ( - 1 ) ) ( * lam5n22 ( - 1 ) ) ( * lam5n23 ( - 1 ) ) ( * lam5n24 ( - 1 ) ) ( * lam5n25 ( - 1 ) ) ( * lam5n26 ( - 1 ) ) ( * lam5n27 ( - 1 ) ) ( * lam5n28 ( - 1 ) ) ( * lam5n29 ( - 1 ) ) ( * lam5n30 ( - 1 ) ) ( * lam5n31 ( - 1 ) ) ( * lam5n32 ( - 1 ) ) ( * lam5n33 ( - 1 ) ) ( * lam5n34 ( - 1 ) ) ( * lam5n35 ( - 1 ) ) ( * lam5n36 ( - 1 ) ) ( * lam5n37 ( - 1 ) ) ( * lam5n38 ( - 1 ) ) ( * lam5n39 global_invc1_0 ) ( * lam5n40 term_invc1_0 ) ) ( * ( - 1 ) rfc0 ) ) ( = ( + ( * lam5n2 ( - 1 ) ) ( * lam5n3 1 ) ( * lam5n4 1 ) ( * lam5n6 1 ) ( * lam5n7 ( - 1 ) ) ( * lam5n8 ( - 1 ) ) ( * lam5n9 1 ) ( * lam5n10 ( - 2 ) ) ( * lam5n11 ( - 1 ) ) ( * lam5n39 global_invc1_1 ) ( * lam5n40 term_invc1_1 ) ) ( * ( - 1 ) rfc1 ) ) ( = ( * lam5n2 ( - 1 ) ) rfc0 ) ( = ( * lam5n3 ( - 1 ) ) rfc1 ) ) ) ) ( = bnd_and_dec1_L_L_L ( and bounded1_L_L_L dec1_L_L_L ) ) ( = GLOBAL_NT_1 ( or ( not ( = global_invc1_0 0 ) ) ( not ( = global_invc1_1 0 ) ) ) ) ( or ( and ( not ( <= ( + global_invc1_2 ( * global_invc1_0 global_V0_1 ) ( * global_invc1_1 global_V1_1 ) ) 0 ) ) ( <= ( + 0 global_V1_1 1 ) 0 ) ( <= ( + ( * ( - 1 ) global_V0_1 ) 0 1 ) 0 ) ( <= ( + 0 global_V1_1 2 ) 0 ) ) ( and ( = global_invc1_0 0 ) ( = global_invc1_1 0 ) ) ) ( = TERM_NT_1 ( or ( not ( = term_invc1_0 0 ) ) ( not ( = term_invc1_1 0 ) ) ) ) ( or ( and ( not ( <= ( + term_invc1_2 ( * term_invc1_0 term_V0_1 ) ( * term_invc1_1 term_V1_1 ) ) 0 ) ) ( <= ( + 0 term_V1_1 1 ) 0 ) ( <= ( + ( * ( - 1 ) term_V0_1 ) 0 1 ) 0 ) ( <= ( + ( * ( - 1 ) term_V0_1 ) ( * ( - 1 ) term_V1_1 ) 1 ) 0 ) ( <= ( + 0 term_V1_1 2 ) 0 ) ( <= ( + ( * ( - 1 ) term_V0_1 ) ( * ( - 1 ) term_V1_1 ) 27 ) 0 ) ( <= ( + ( * ( - 1 ) term_V0_1 ) 0 33 ) 0 ) ( <= ( + ( * ( - 1 ) term_V0_1 ) 0 69 ) 0 ) ( <= ( + ( * ( - 1 ) term_V0_1 ) 0 70 ) 0 ) ( <= ( + ( * ( - 1 ) term_V0_1 ) 0 71 ) 0 ) ( <= ( + ( * ( - 1 ) term_V0_1 ) 0 72 ) 0 ) ( <= ( + ( * ( - 1 ) term_V0_1 ) 0 73 ) 0 ) ( <= ( + ( * ( - 1 ) term_V0_1 ) 0 74 ) 0 ) ( <= ( + ( * ( - 1 ) term_V0_1 ) 0 75 ) 0 ) ( <= ( + ( * ( - 1 ) term_V0_1 ) 0 76 ) 0 ) ( <= ( + ( * ( - 1 ) term_V0_1 ) 0 77 ) 0 ) ( <= ( + ( * ( - 1 ) term_V0_1 ) 0 78 ) 0 ) ( <= ( + ( * ( - 1 ) term_V0_1 ) 0 79 ) 0 ) ( <= ( + ( * ( - 1 ) term_V0_1 ) 0 80 ) 0 ) ( <= ( + ( * ( - 1 ) term_V0_1 ) 0 81 ) 0 ) ( <= ( + ( * ( - 1 ) term_V0_1 ) 0 82 ) 0 ) ( <= ( + ( * ( - 1 ) term_V0_1 ) 0 83 ) 0 ) ( <= ( + ( * ( - 1 ) term_V0_1 ) 0 84 ) 0 ) ( <= ( + ( * ( - 1 ) term_V0_1 ) 0 85 ) 0 ) ( <= ( + ( * ( - 1 ) term_V0_1 ) 0 86 ) 0 ) ( <= ( + ( * ( - 1 ) term_V0_1 ) 0 87 ) 0 ) ( <= ( + ( * ( - 1 ) term_V0_1 ) 0 88 ) 0 ) ( <= ( + ( * ( - 1 ) term_V0_1 ) 0 89 ) 0 ) ( <= ( + ( * ( - 1 ) term_V0_1 ) 0 90 ) 0 ) ( <= ( + ( * ( - 1 ) term_V0_1 ) 0 91 ) 0 ) ( <= ( + ( * ( - 1 ) term_V0_1 ) 0 92 ) 0 ) ( <= ( + ( * ( - 1 ) term_V0_1 ) 0 93 ) 0 ) ( <= ( + ( * ( - 1 ) term_V0_1 ) 0 94 ) 0 ) ) ( and ( = term_invc1_0 0 ) ( = term_invc1_1 0 ) ) ) ( = ALL_NON_INC_0 non_inc1_L_L_L ) ( = DIS_OR_ALL_NON_INC_0 ( or disabled1_L_L_L ALL_NON_INC_0 ) ) ( = SOME_BND_AND_DEC_0 bnd_and_dec1_L_L_L ) ( or ( not ALL_NON_INC_0 ) ( and ( >= rfc0 ( - 2 ) ) ( <= rfc0 2 ) ( >= rfc1 ( - 2 ) ) ( <= rfc1 2 ) ( not ( = rfc0 0 ) ) ( >= rfc2 0 ) ( or SOME_BND_AND_DEC_0 ( or ( and ( <= ( + ( * rfc0 V0_NIV ) ( * rfc1 V1_NIV ) 1 ) ( + ( * rfc0 V2_NIV ) ( * rfc1 V3_NIV ) ) ) ( >= ( + ( * ( - 1 ) V0_NIV ) ( * ( - 1 ) V1_NIV ) ) ( + ( * ( - 1 ) V2_NIV ) ( * ( - 1 ) V3_NIV ) ) ) ( >= ( + ( * ( - 1 ) V0_NIV ) V1_NIV ) ( + ( * ( - 1 ) V2_NIV ) V3_NIV ) ) ( >= ( + ( * ( - 1 ) V0_NIV ) 0 ) ( + ( * ( - 1 ) V2_NIV ) 0 ) ) ( >= ( + ( * ( - 1 ) V0_NIV ) ( * 2 V1_NIV ) ) ( + ( * ( - 1 ) V2_NIV ) ( * 2 V3_NIV ) ) ) ( >= ( + ( * ( - 1 ) V0_NIV ) ( * ( - 2 ) V1_NIV ) ) ( + ( * ( - 1 ) V2_NIV ) ( * ( - 2 ) V3_NIV ) ) ) ) ( and ( or ( = rfc0 0 ) ( = rfc1 0 ) ) ( or ( = rfc0 0 ) ( = rfc1 0 ) ) ( = rfc0 0 ) ( or ( = rfc0 0 ) ( = rfc1 0 ) ) ( or ( = rfc0 0 ) ( = rfc1 0 ) ) ) ) ) ) ) ( or GLOBAL_NT_1 TERM_NT_1 ALL_NON_INC_0 ) ))
(check-sat)
(exit)
